\ LP format - for model browsing. Use MPS format to capture full model detail.
Minimize
  10 x_mini + 7 x_van
Subject To
 R0: 10 x_mini + 6 x_van >= 150
 R1: x_mini <= 10
 R2: - x_mini + x_van >= 0
Bounds
Generals
 x_mini x_van
End
